************************************************************************
file with basedata            : j901_.bas
initial value random generator: 1036365697
************************************************************************
projects                      :  1
jobs (incl. supersource/sink ):  92
horizon                       :  473
RESOURCES
  - renewable                 :  4   R
  - nonrenewable              :  0   N
  - doubly constrained        :  0   D
************************************************************************
PROJECT INFORMATION:
pronr.  #jobs rel.date duedate tardcost  MPM-Time
    1     90      0       66       35       66
************************************************************************
PRECEDENCE RELATIONS:
jobnr.    #modes  #successors   successors
   1        1          3           2   3   4
   2        1          3           7  13  18
   3        1          3           5  16  20
   4        1          3           6   8  41
   5        1          1          65
   6        1          3           9  23  68
   7        1          3          11  25  33
   8        1          3          10  12  14
   9        1          3          15  26  30
  10        1          1          49
  11        1          3          19  28  34
  12        1          2          29  75
  13        1          2          37  59
  14        1          2          31  65
  15        1          2          17  46
  16        1          2          24  89
  17        1          1          67
  18        1          1          86
  19        1          2          21  27
  20        1          3          22  36  63
  21        1          1          83
  22        1          2          39  48
  23        1          1          43
  24        1          1          81
  25        1          1          36
  26        1          3          44  54  56
  27        1          1          74
  28        1          3          32  42  53
  29        1          2          35  61
  30        1          2          38  70
  31        1          1          46
  32        1          1          80
  33        1          1          43
  34        1          1          50
  35        1          3          51  52  77
  36        1          1          45
  37        1          1          47
  38        1          1          45
  39        1          2          40  73
  40        1          1          52
  41        1          1          76
  42        1          2          49  62
  43        1          1          58
  44        1          1          49
  45        1          3          55  57  60
  46        1          2          78  79
  47        1          1          64
  48        1          1          69
  49        1          1          72
  50        1          2          51  81
  51        1          1          85
  52        1          1          71
  53        1          1          84
  54        1          2          60  64
  55        1          1          65
  56        1          1          71
  57        1          2          66  84
  58        1          1          69
  59        1          1          91
  60        1          1          90
  61        1          1          87
  62        1          1          69
  63        1          1          79
  64        1          2          82  88
  65        1          1          83
  66        1          1          79
  67        1          1          83
  68        1          1          72
  69        1          2          70  78
  70        1          1          82
  71        1          1          80
  72        1          1          85
  73        1          1          85
  74        1          1          86
  75        1          1          76
  76        1          1          86
  77        1          1          78
  78        1          1          84
  79        1          1          81
  80        1          1          82
  81        1          2          88  91
  82        1          1          91
  83        1          2          88  89
  84        1          1          87
  85        1          1          87
  86        1          1          90
  87        1          1          89
  88        1          1          90
  89        1          1          92
  90        1          1          92
  91        1          1          92
  92        1          0        
************************************************************************
REQUESTS/DURATIONS:
jobnr. mode duration  R 1  R 2  R 3  R 4
------------------------------------------------------------------------
  1      1     0       0    0    0    0
  2      1     5       0    3    0    0
  3      1     6       2    0    0    0
  4      1     5       0    6    0    0
  5      1     5       0    0    7    0
  6      1     1       0    0    3    0
  7      1     2       7    0    0    0
  8      1     1       0    0    9    0
  9      1     8       0    0    0    6
 10      1     4       0   10    0    0
 11      1     9       0    6    0    0
 12      1     2       9    0    0    0
 13      1     2       0    1    0    0
 14      1     7       9    0    0    0
 15      1     9       0    4    0    0
 16      1     6       0    0    0    1
 17      1     5       0    0    8    0
 18      1     2       0    0    0    6
 19      1     3       0    0    4    0
 20      1     1       0    0    0    6
 21      1     8       0    0    0    4
 22      1    10      10    0    0    0
 23      1     6      10    0    0    0
 24      1     7       0    0    6    0
 25      1     2       0    7    0    0
 26      1     9       0    0    8    0
 27      1     1       2    0    0    0
 28      1     6       0    0    4    0
 29      1     5       0    0    9    0
 30      1     5       0    0    0    6
 31      1     5       0    7    0    0
 32      1     9       0    0    8    0
 33      1     8       0    1    0    0
 34      1    10       2    0    0    0
 35      1     2      10    0    0    0
 36      1     1       0    1    0    0
 37      1     7       0   10    0    0
 38      1    10       2    0    0    0
 39      1     9       8    0    0    0
 40      1     1       0    0   10    0
 41      1     1       0    0    0    7
 42      1     4       0    7    0    0
 43      1     6       0    0    0    4
 44      1    10       0    0   10    0
 45      1     2       0    0    6    0
 46      1     2       0    0    1    0
 47      1     4       0    0    0    2
 48      1     4       1    0    0    0
 49      1     8       0    0    9    0
 50      1     2       0    0    5    0
 51      1     5       0    0    0   10
 52      1     2       0    0    0    9
 53      1     1       0    0    1    0
 54      1     8       0    6    0    0
 55      1     8       0    5    0    0
 56      1    10       0    0    0    9
 57      1    10       0    0    0    4
 58      1     2       0    0    0    2
 59      1     2       0    0    7    0
 60      1     6       0    0    0    4
 61      1     2       0    8    0    0
 62      1     5       0    0   10    0
 63      1     2       7    0    0    0
 64      1     6       0    0    1    0
 65      1     8       0    0    9    0
 66      1     3       6    0    0    0
 67      1     9       7    0    0    0
 68      1     7       2    0    0    0
 69      1     4       2    0    0    0
 70      1    10       5    0    0    0
 71      1     4       0    0    0    5
 72      1    10       0    1    0    0
 73      1     5       0    0   10    0
 74      1     5       0    0    6    0
 75      1     2       1    0    0    0
 76      1    10      10    0    0    0
 77      1     8       0    0    0    3
 78      1     2       0    0    0    7
 79      1     7       0    3    0    0
 80      1     8       9    0    0    0
 81      1     3       0    4    0    0
 82      1    10       0    5    0    0
 83      1     1       0    0    0    5
 84      1     5       6    0    0    0
 85      1     5       8    0    0    0
 86      1     3       0    0    0    7
 87      1     7       0    1    0    0
 88      1     9       4    0    0    0
 89      1     2       0    0    0    6
 90      1     3       0    6    0    0
 91      1     7       0    0    0    1
 92      1     0       0    0    0    0
************************************************************************
RESOURCEAVAILABILITIES:
  R 1  R 2  R 3  R 4
   17   15   20   14
************************************************************************
